DATASET = "thpack2";
INSTANCE = "031";

WIDTH = 233;
HEIGHT = 220;
LENGTH = 587;

NO_OF_SHAPES = 5;
size = [|
  70,63,49 |
  84,54,49 |
  89,70,42 |
  80,48,39 |
  114,47,42 |
|];

verticality = [|
  1,1,1 |
  1,1,1 |
  0,1,1 |
  0,1,1 |
  0,1,1 |
|];

box_count = [
  31,
  27,
  24,
  32,
  28,
];
